c nIsolatedPIs 0
c maxPI 32
p cnf 100 205
c gate 33 10 -26 0
10 -33 0
-26 -33 0
-10 26 33 0
c gate 34 9 -25 0
9 -34 0
-25 -34 0
-9 25 34 0
c gate 35 -9 25 0
-9 -35 0
25 -35 0
9 -25 35 0
c gate 36 8 -24 0
8 -36 0
-24 -36 0
-8 24 36 0
c gate 37 -8 -24 0
-8 -37 0
-24 -37 0
8 24 37 0
c gate 38 8 24 0
8 -38 0
24 -38 0
-8 -24 38 0
c gate 39 -37 -38 0
-37 -39 0
-38 -39 0
37 38 39 0
c gate 40 -7 23 0
-7 -40 0
23 -40 0
7 -23 40 0
c gate 41 6 -22 0
6 -41 0
-22 -41 0
-6 22 41 0
c gate 42 7 -23 0
7 -42 0
-23 -42 0
-7 23 42 0
c gate 43 -40 -42 0
-40 -43 0
-42 -43 0
40 42 43 0
c gate 44 -41 43 0
-41 -44 0
43 -44 0
41 -43 44 0
c gate 45 -2 18 0
-2 -45 0
18 -45 0
2 -18 45 0
c gate 46 -1 17 0
-1 -46 0
17 -46 0
1 -17 46 0
c gate 47 -45 -46 0
-45 -47 0
-46 -47 0
45 46 47 0
c gate 48 2 -18 0
2 -48 0
-18 -48 0
-2 18 48 0
c gate 49 3 -19 0
3 -49 0
-19 -49 0
-3 19 49 0
c gate 50 -48 -49 0
-48 -50 0
-49 -50 0
48 49 50 0
c gate 51 -47 50 0
-47 -51 0
50 -51 0
47 -50 51 0
c gate 52 -3 19 0
-3 -52 0
19 -52 0
3 -19 52 0
c gate 53 -4 20 0
-4 -53 0
20 -53 0
4 -20 53 0
c gate 54 -52 -53 0
-52 -54 0
-53 -54 0
52 53 54 0
c gate 55 -51 54 0
-51 -55 0
54 -55 0
51 -54 55 0
c gate 56 4 -20 0
4 -56 0
-20 -56 0
-4 20 56 0
c gate 57 5 -21 0
5 -57 0
-21 -57 0
-5 21 57 0
c gate 58 -56 -57 0
-56 -58 0
-57 -58 0
56 57 58 0
c gate 59 -55 58 0
-55 -59 0
58 -59 0
55 -58 59 0
c gate 60 -5 21 0
-5 -60 0
21 -60 0
5 -21 60 0
c gate 61 -6 -22 0
-6 -61 0
-22 -61 0
6 22 61 0
c gate 62 6 22 0
6 -62 0
22 -62 0
-6 -22 62 0
c gate 63 -61 -62 0
-61 -63 0
-62 -63 0
61 62 63 0
c gate 64 -60 -63 0
-60 -64 0
-63 -64 0
60 63 64 0
c gate 65 -59 64 0
-59 -65 0
64 -65 0
59 -64 65 0
c gate 66 44 -65 0
44 -66 0
-65 -66 0
-44 65 66 0
c gate 67 -40 -66 0
-40 -67 0
-66 -67 0
40 66 67 0
c gate 68 -39 67 0
-39 -68 0
67 -68 0
39 -67 68 0
c gate 69 -36 -68 0
-36 -69 0
-68 -69 0
36 68 69 0
c gate 70 -35 -69 0
-35 -70 0
-69 -70 0
35 69 70 0
c gate 71 -34 -70 0
-34 -71 0
-70 -71 0
34 70 71 0
c gate 72 -10 -26 0
-10 -72 0
-26 -72 0
10 26 72 0
c gate 73 10 26 0
10 -73 0
26 -73 0
-10 -26 73 0
c gate 74 -72 -73 0
-72 -74 0
-73 -74 0
72 73 74 0
c gate 75 -71 -74 0
-71 -75 0
-74 -75 0
71 74 75 0
c gate 76 -33 -75 0
-33 -76 0
-75 -76 0
33 75 76 0
c gate 77 -11 -27 0
-11 -77 0
-27 -77 0
11 27 77 0
c gate 78 11 27 0
11 -78 0
27 -78 0
-11 -27 78 0
c gate 79 -77 -78 0
-77 -79 0
-78 -79 0
77 78 79 0
c gate 80 76 -79 0
76 -80 0
-79 -80 0
-76 79 80 0
c gate 81 -14 -30 0
-14 -81 0
-30 -81 0
14 30 81 0
c gate 82 14 30 0
14 -82 0
30 -82 0
-14 -30 82 0
c gate 83 -81 -82 0
-81 -83 0
-82 -83 0
81 82 83 0
c gate 84 16 32 0
16 -84 0
32 -84 0
-16 -32 84 0
c gate 85 -16 -32 0
-16 -85 0
-32 -85 0
16 32 85 0
c gate 86 -84 -85 0
-84 -86 0
-85 -86 0
84 85 86 0
c gate 87 -83 -86 0
-83 -87 0
-86 -87 0
83 86 87 0
c gate 88 12 28 0
12 -88 0
28 -88 0
-12 -28 88 0
c gate 89 -12 -28 0
-12 -89 0
-28 -89 0
12 28 89 0
c gate 90 -88 -89 0
-88 -90 0
-89 -90 0
88 89 90 0
c gate 91 13 29 0
13 -91 0
29 -91 0
-13 -29 91 0
c gate 92 -13 -29 0
-13 -92 0
-29 -92 0
13 29 92 0
c gate 93 -91 -92 0
-91 -93 0
-92 -93 0
91 92 93 0
c gate 94 15 31 0
15 -94 0
31 -94 0
-15 -31 94 0
c gate 95 -15 -31 0
-15 -95 0
-31 -95 0
15 31 95 0
c gate 96 -94 -95 0
-94 -96 0
-95 -96 0
94 95 96 0
c gate 97 -93 -96 0
-93 -97 0
-96 -97 0
93 96 97 0
c gate 98 -90 97 0
-90 -98 0
97 -98 0
90 -97 98 0
c gate 99 87 98 0
87 -99 0
98 -99 0
-87 -98 99 0
c gate 100 80 99 0
80 -100 0
99 -100 0
-80 -99 100 0
c PO
100 0
